33D32945 STP File, STP Format Version 1.0

SECTION Comments
Name "shell_n13_d2_s30"
Problem "Euclidean Steiner Tree Problem"
Remark "Generated with STPGenerator. 2 dimensions."
END

SECTION Graph
Nodes 13
END

SECTION Coordinates
DD 0 -0.5897669063 0.8075735237
DD 1 0.5764065069 0.8171631041
DD 2 0.6852813442 0.7282784353
DD 3 0.9996258624 0.0273520612
DD 4 0.6148272476 0.7886618132
DD 5 0.9998684037 0.0162226773
DD 6 0.6036499671 -0.7972494698
DD 7 -0.2739453319 0.9617452652
DD 8 -0.7854864326 -0.6188788768
DD 9 0.8782274069 0.4782432664
DD 10 -0.6840269158 -0.7294567695
DD 11 -0.7908049930 -0.6120681850
DD 12 0.6432038807 -0.7656949574
END
